100 8
336 984
267 647
464 713
498 607
472 702
422 913
705 637
678 186
849 42
580 512
253 261
878 470
215 43
604 508
171 410
164 680
488 779
618 418
509 623
870 133
793 371
312 815
487 683
493 671
694 637
590 315
683 355
938 353
384 697
212 78
508 528
544 185
459 738
291 29
770 457
799 544
644 439
853 178
332 672
225 22
601 702
392 850
189 309
256 557
247 713
493 665
144 579
699 92
510 506
792 76
438 301
746 657
305 298
830 414
305 223
500 572
373 266
637 737
766 596
836 205
668 727
646 474
499 550
240 106
804 418
412 617
649 666
526 520
661 542
756 595
443 693
300 548
362 715
504 588
578 267
737 467
310 429
771 469
670 653
532 546
765 537
250 205
678 472
180 598
166 115
543 317
256 343
414 661
176 562
545 348
514 809
240 693
695 673
551 482
781 23
277 811
271 309
884 345
342 529
414 333
